Route #1: 16 11 29 20
Route #2: 14
Route #3: 22
Route #4: 1 30
Route #5: 18 4
Route #6: 10 13
Route #7: 9 19
Route #8: 31
Route #9: 21
Route #10: 15 17
Route #11: 24 27 3 12
Route #12: 5 8 26
Route #13: 23 2 25 7
Route #14: 28
Route #15: 6

Cost: 2774.0974175296
